db/inputs/1292052830702163466575218592478529457.smt2
(set-logic QF_FP)
(declare-const x0 (_ FloatingPoint 8 24))
(declare-const x1 (_ FloatingPoint 8 24))
(declare-const x2 (_ FloatingPoint 8 24))
(declare-const x3 (_ FloatingPoint 8 24))
(declare-const x4 (_ FloatingPoint 8 24))
(declare-const x5 (_ FloatingPoint 8 24))
(declare-const x6 (_ FloatingPoint 8 24))
(assert (fp.leq (fp.div RNE x4 x4) (fp.neg x4)))
(assert (fp.leq (fp.neg x3) (fp.neg x2)))
(assert (fp.gt (fp.mul RNE x5 x2) (fp.neg x4)))
(check-sat)
