db/data/1292052830702163466575218592478529457.z3.out
sat
-------------------
3.519392129
